Minimize
  - 8 y_0 - 14 y_1 - 8 y_2 - 11 y_3 - 14 y_5 - 13 y_6 - 14 y_7 - 8 y_8
   - 8 y_9 + 62 x_0_2 + 79 x_0_5 + 51 x_0_6 + 52 x_0_9 + 3 x_1_5 + 42 x_1_7
   + 29 x_1_8 + 81 x_1_9 + 60 x_2_3 + 30 x_2_4 + 33 x_2_7 + 42 x_2_8
   + 30 x_2_9 + 45 x_3_4 + 64 x_3_7 + 19 x_3_8 + 54 x_4_6 + 30 x_4_8
   + 26 x_5_8 + 54 x_6_4 + 39 x_6_8 + 86 x_6_9 + 49 x_7_8 + 49 x_7_8
   + 49 x_7_8 + 49 x_7_8 + 49 x_7_8 + 49 x_7_8 + 49 x_7_8 + 49 x_7_8
   + 49 x_7_8 + 49 x_7_8 + 49 x_7_8 + 49 x_7_8 + 49 x_7_8 + 49 x_7_8
   + 49 x_7_8 + 49 x_7_8 + 49 x_7_8 + 49 x_7_8 + 49 x_7_8 + 49 x_7_8
   + 49 x_7_8 + 49 x_7_8 + 49 x_7_8 + 49 x_7_8 + 49 x_7_8 + 49 x_7_8
   + 49 x_7_8 + 49 x_7_8 + 49 x_7_8 + 49 x_7_8 + 49 x_7_8 + 49 x_7_8
   + 49 x_7_8 + 49 x_7_8 + 49 x_7_8 + 49 x_7_8 + 49 x_7_8 + 49 x_7_8
   + 49 x_7_8 + 49 x_7_8 + 49 x_7_8 + 49 x_7_8 + 49 x_7_8 + 49 x_7_8
   + 49 x_7_8 + 49 x_7_8 + 49 x_7_8 + 49 x_7_8 + 49 x_7_8 + 49 x_7_8
   + 49 x_7_8 + 49 x_7_8 + 49 x_7_8 + 49 x_7_8 + 49 x_7_8 + 49 x_7_8
   + 49 x_7_8 + 49 x_7_8 + 49 x_7_8 + 49 x_7_8 + 49 x_7_8 + 49 x_7_8
   + 49 x_7_8 + 49 x_7_8 + 49 x_7_8 + 49 x_7_8 + 49 x_7_8 + 49 x_7_8
   + 49 x_7_8 + 49 x_7_8 + 49 x_7_8 + 49 x_7_8 + 49 x_7_8 + 49 x_7_8
   + 49 x_7_8 + 49 x_7_8 + 49 x_7_8 + 49 x_7_8 + 49 x_7_8 + 49 x_7_8
   + 49 x_7_8 + 49 x_7_8 + 49 x_7_8 + 49 x_7_8 + 49 x_7_8 + 49 x_7_8
   + 49 x_7_8 + 49 x_7_8 + 49 x_7_8 + 49 x_7_8 + 49 x_7_8 + 49 x_7_8
   + 49 x_7_8 + 49 x_7_8 + 49 x_7_8 + 49 x_7_8 + 49 x_7_8 + 49 x_7_8
   + 49 x_7_8 + 49 x_7_8 + 49 x_7_8 + 49 x_7_8 + 49 x_7_8 + 49 x_7_8
   + 49 x_7_8 + 49 x_7_8 + 49 x_7_8 + 49 x_7_8 + 49 x_7_8 + 49 x_7_8
   + 49 x_7_8 + 49 x_7_8 + 49 x_7_8 + 49 x_7_8 + 49 x_7_8 + 49 x_7_8
   + 49 x_7_8 + 49 x_7_8 + 49 x_7_8 + 49 x_7_8 + 49 x_7_8 + 49 x_7_8
   + 49 x_7_8 + 49 x_7_8 + 49 x_7_8 + 49 x_7_8 + 49 x_7_8 + 49 x_7_8
   + 49 x_7_8 + 49 x_7_8 + 49 x_7_8 + 49 x_7_8 + 49 x_7_8 + 49 x_7_8
   + 49 x_7_8 + 49 x_7_8 + 49 x_7_8 + 49 x_7_8 + 49 x_7_8 + 49 x_7_8
   + 49 x_7_8 + 49 x_7_8 + 49 x_7_8 + 49 x_7_8 + 49 x_7_8 + 49 x_7_8
   + 49 x_7_8 + 49 x_7_8 + 49 x_7_8 + 49 x_7_8 + 49 x_7_8 + 49 x_7_8
   + 49 x_7_8 + 49 x_7_8 + 49 x_7_8 + 49 x_7_8 + 49 x_7_8 + 49 x_7_8
   + 49 x_7_8 + 49 x_7_8 + 49 x_7_8 + 49 x_7_8 + 49 x_7_8 + 49 x_7_8
   + 49 x_7_8 + 49 x_7_8 + 49 x_7_8 + 49 x_7_8 + 49 x_7_8 + 49 x_7_8
   + 49 x_7_8 + 49 x_7_8 + 49 x_7_8 + 49 x_7_8 + 49 x_7_8 + 49 x_7_8
   + 49 x_7_8 + 49 x_7_8 + 49 x_7_8 + 49 x_7_8 + 49 x_7_8 + 49 x_7_8
   + 49 x_7_8 + 49 x_7_8 + 49 x_7_8 + 49 x_7_8 + 49 x_7_8 + 49 x_7_8
   + 49 x_7_8 + 49 x_7_8 + 49 x_7_8 + 49 x_7_8 + 49 x_7_8 + 49 x_7_8
   + 49 x_7_8 + 49 x_7_8 + 49 x_7_8 + 49 x_7_8 + 49 x_7_8 + 49 x_7_8
   + 49 x_7_8 + 49 x_7_8 + 49 x_7_8 + 49 x_7_8 + 49 x_7_8 + 49 x_7_8
   + 49 x_7_8 + 49 x_7_8 + 98 Constant
Subject To
 c_0: y_1 = 1
 c_1_0: y_0 >= 1
 c_1_1: y_1 + y_5 >= 1
 c_1_2: y_2 >= 1
 c_1_3: y_3 >= 1
 c_1_4: y_4 >= 1
 c_1_5: y_1 + y_5 >= 1
 c_1_6: y_6 >= 1
 c_1_7: y_7 >= 1
 c_1_8: y_8 >= 1
 c_1_9: y_9 >= 1
 c_2_0: - 2 y_0 + x_0_2 + x_0_5 + x_0_6 + x_0_9 = 0
 c_2_1: - 2 y_1 + x_1_5 + x_1_7 + x_1_8 + x_1_9 = 0
 c_2_2: - 2 y_2 + x_0_2 + x_2_3 + x_2_4 + x_2_7 + x_2_8 + x_2_9 = 0
 c_2_3: - 2 y_3 + x_2_3 + x_3_4 + x_3_7 + x_3_8 = 0
 c_2_4: - 2 y_4 + x_2_4 + x_3_4 + x_4_8 + 2 x_6_4 = 0
 c_2_5: - 2 y_5 + x_0_5 + x_1_5 + x_5_8 = 0
 c_2_6: - 2 y_6 + x_0_6 + 2 x_6_4 + x_6_8 + x_6_9 = 0
 c_2_7: - 2 y_7 + x_1_7 + x_2_7 + x_3_7 + 208 x_7_8 = 0
 c_2_8: - 2 y_8 + x_1_8 + x_2_8 + x_3_8 + x_4_8 + x_5_8 + x_6_8 + 208 x_7_8
   = 0
 c_2_9: - 2 y_9 + x_0_9 + x_1_9 + x_2_9 + x_6_9 = 0
Bounds
 Constant = 1
Binaries
 y_0 y_1 y_2 y_3 y_4 y_5 y_6 y_7 y_8 y_9 x_0_2 x_0_5 x_0_6 x_0_9 x_1_5
 x_1_7 x_1_8 x_1_9 x_2_3 x_2_4 x_2_7 x_2_8 x_2_9 x_3_4 x_3_7 x_3_8 x_4_6
 x_4_8 x_5_8 x_6_4 x_6_8 x_6_9 x_7_8 x_7_8 x_7_8 x_7_8 x_7_8 x_7_8 x_7_8
 x_7_8 x_7_8 x_7_8 x_7_8 x_7_8 x_7_8 x_7_8 x_7_8 x_7_8 x_7_8 x_7_8 x_7_8
 x_7_8 x_7_8 x_7_8 x_7_8 x_7_8 x_7_8 x_7_8 x_7_8 x_7_8 x_7_8 x_7_8 x_7_8
 x_7_8 x_7_8 x_7_8 x_7_8 x_7_8 x_7_8 x_7_8 x_7_8 x_7_8 x_7_8 x_7_8 x_7_8
 x_7_8 x_7_8 x_7_8 x_7_8 x_7_8 x_7_8 x_7_8 x_7_8 x_7_8 x_7_8 x_7_8 x_7_8
 x_7_8 x_7_8 x_7_8 x_7_8 x_7_8 x_7_8 x_7_8 x_7_8 x_7_8 x_7_8 x_7_8 x_7_8
 x_7_8 x_7_8 x_7_8 x_7_8 x_7_8 x_7_8 x_7_8 x_7_8 x_7_8 x_7_8 x_7_8 x_7_8
 x_7_8 x_7_8 x_7_8 x_7_8 x_7_8 x_7_8 x_7_8 x_7_8 x_7_8 x_7_8 x_7_8 x_7_8
 x_7_8 x_7_8 x_7_8 x_7_8 x_7_8 x_7_8 x_7_8 x_7_8 x_7_8 x_7_8 x_7_8 x_7_8
 x_7_8 x_7_8 x_7_8 x_7_8 x_7_8 x_7_8 x_7_8 x_7_8 x_7_8 x_7_8 x_7_8 x_7_8
 x_7_8 x_7_8 x_7_8 x_7_8 x_7_8 x_7_8 x_7_8 x_7_8 x_7_8 x_7_8 x_7_8 x_7_8
 x_7_8 x_7_8 x_7_8 x_7_8 x_7_8 x_7_8 x_7_8 x_7_8 x_7_8 x_7_8 x_7_8 x_7_8
 x_7_8 x_7_8 x_7_8 x_7_8 x_7_8 x_7_8 x_7_8 x_7_8 x_7_8 x_7_8 x_7_8 x_7_8
 x_7_8 x_7_8 x_7_8 x_7_8 x_7_8 x_7_8 x_7_8 x_7_8 x_7_8 x_7_8 x_7_8 x_7_8
 x_7_8 x_7_8 x_7_8 x_7_8 x_7_8 x_7_8 x_7_8 x_7_8 x_7_8 x_7_8 x_7_8 x_7_8
 x_7_8 x_7_8 x_7_8 x_7_8 x_7_8 x_7_8 x_7_8 x_7_8 x_7_8 x_7_8 x_7_8 x_7_8
 x_7_8 x_7_8 x_7_8 x_7_8 x_7_8 x_7_8 x_7_8 x_7_8 x_7_8 x_7_8 x_7_8 x_7_8
 x_7_8 x_7_8 x_7_8 x_7_8 x_7_8 x_7_8 x_7_8 x_7_8 x_7_8
End
